
Gurobi 7.5.1 (mac64, Java) logging started Mon Sep  4 15:37:08 2017

Academic license - for non-commercial use only

Gurobi 7.5.1 (mac64, Java) logging started Mon Sep  4 15:38:32 2017

Academic license - for non-commercial use only

Gurobi 7.5.1 (mac64, Java) logging started Mon Sep  4 15:39:23 2017

Academic license - for non-commercial use only

Gurobi 7.5.1 (mac64, Java) logging started Mon Sep  4 15:39:33 2017

Academic license - for non-commercial use only

Gurobi 7.5.1 (mac64, Java) logging started Mon Sep  4 15:39:34 2017

Academic license - for non-commercial use only

Gurobi 7.5.1 (mac64, Java) logging started Mon Sep  4 15:39:35 2017

Academic license - for non-commercial use only

Gurobi 7.5.1 (mac64, Java) logging started Mon Sep  4 15:40:08 2017

Academic license - for non-commercial use only

Gurobi 7.5.1 (mac64, Java) logging started Mon Sep  4 15:41:16 2017

Academic license - for non-commercial use only

Gurobi 7.5.1 (mac64, Java) logging started Mon Sep  4 15:41:29 2017

Academic license - for non-commercial use only

Gurobi 7.5.1 (mac64, Java) logging started Mon Sep  4 15:42:15 2017

Academic license - for non-commercial use only

Gurobi 7.5.1 (mac64, Java) logging started Mon Sep  4 15:43:06 2017

Academic license - for non-commercial use only

Gurobi 7.5.1 (mac64, Java) logging started Mon Sep  4 15:45:16 2017

Academic license - for non-commercial use only

Gurobi 7.5.1 (mac64, Java) logging started Mon Sep  4 15:46:16 2017

Academic license - for non-commercial use only

Gurobi 7.5.1 (mac64, Java) logging started Mon Sep  4 15:49:01 2017

Academic license - for non-commercial use only

Gurobi 7.5.1 (mac64, Java) logging started Mon Sep  4 16:17:28 2017

Academic license - for non-commercial use only

Gurobi 7.5.1 (mac64, Java) logging started Mon Sep  4 16:19:15 2017

Academic license - for non-commercial use only

Gurobi 7.5.1 (mac64, Java) logging started Mon Sep  4 16:19:32 2017

Academic license - for non-commercial use only

Gurobi 7.5.1 (mac64, Java) logging started Mon Sep  4 16:29:18 2017

Academic license - for non-commercial use only

Gurobi 7.5.1 (mac64, Java) logging started Mon Sep  4 16:49:21 2017

Academic license - for non-commercial use only

Gurobi 7.5.1 (mac64, Java) logging started Mon Sep  4 16:49:57 2017

Academic license - for non-commercial use only

Gurobi 7.5.1 (mac64, Java) logging started Tue Sep  5 11:24:27 2017

Academic license - for non-commercial use only

Gurobi 7.5.1 (mac64, Java) logging started Tue Sep  5 11:25:02 2017

Academic license - for non-commercial use only

Gurobi 7.5.1 (mac64, Java) logging started Tue Sep  5 11:25:32 2017

Academic license - for non-commercial use only

Gurobi 7.5.1 (mac64, Java) logging started Tue Sep  5 11:44:36 2017

Academic license - for non-commercial use only

Gurobi 7.5.1 (mac64, Java) logging started Tue Sep  5 11:54:23 2017

Academic license - for non-commercial use only

Gurobi 7.5.1 (mac64, Java) logging started Tue Sep  5 11:54:36 2017

Academic license - for non-commercial use only

Gurobi 7.5.1 (mac64, Java) logging started Tue Sep  5 11:54:43 2017

Academic license - for non-commercial use only

Gurobi 7.5.1 (mac64, Java) logging started Tue Sep  5 11:54:52 2017

Academic license - for non-commercial use only

Gurobi 7.5.1 (mac64, Java) logging started Tue Sep  5 14:27:55 2017

Academic license - for non-commercial use only

Gurobi 7.5.1 (mac64, Java) logging started Tue Sep  5 14:28:00 2017

Academic license - for non-commercial use only

Gurobi 7.5.1 (mac64, Java) logging started Tue Sep  5 14:28:04 2017

Academic license - for non-commercial use only

Gurobi 7.5.1 (mac64, Java) logging started Tue Sep  5 14:28:07 2017

Academic license - for non-commercial use only

Gurobi 7.5.1 (mac64, Java) logging started Wed Sep  6 02:14:53 2017

Academic license - for non-commercial use only

Gurobi 7.5.1 (mac64, Java) logging started Wed Sep  6 02:15:37 2017

Academic license - for non-commercial use only

Gurobi 7.5.1 (mac64, Java) logging started Wed Sep  6 11:46:27 2017

Academic license - for non-commercial use only

Gurobi 7.5.1 (mac64, Java) logging started Wed Sep  6 16:04:32 2017

Academic license - for non-commercial use only

Gurobi 7.5.1 (mac64, Java) logging started Wed Sep  6 16:06:17 2017

Academic license - for non-commercial use only

Gurobi 7.5.1 (mac64, Java) logging started Wed Sep  6 16:09:33 2017

Academic license - for non-commercial use only
